1
0 0
1 1
43
44
0 1
1 2
42
43
0 2
1 3
41
42
0 3
1 4
40
41
0 4
1 5
39
40
0 5
1 6
38
39
0 6
1 7
37
38
0 7
1 8
36
37
0 8
1 9
35
36
0 9
1 10
34
35
0 10
1 11
33
34
0 11
1 12
32
33
0 12
1 13
31
32
0 13
1 14
30
31
0 14
1 15
29
30
0 15
1 16
28
29
0 16
1 17
27
28
0 17
1 18
26
27
0 18
1 19
25
26
0 19
1 20
24
25
0 20
1 21
23
24
0 21
1 22
22
23
0 22
1 23
21
22
0 23
1 24
20
21
0 24
1 25
19
20
0 25
1 26
18
19
0 26
1 27
17
18
0 27
1 28
16
17
0 28
1 29
15
16
0 29
1 30
14
15
0 30
1 31
13
14
0 31
1 32
12
13
0 32
1 33
11
12
0 33
1 34
10
11
0 34
1 35
9
10
0 35
1 36
8
9
0 36
1 37
7
8
0 37
1 38
6
7
0 38
1 39
5
6
0 39
1 40
4
5
0 40
1 41
3
4
0 41
1 42
2
3
0 42
1 43
1
2
0 43
1 44
0
1
